Route #1: 3 5 14 13 21 39
Route #2: 4 28 17 41 11 24 52 34 25
Route #3: 22 45 42 48 12 7 47
Route #4: 37 2 36 50 43 23 19 15 32 16 9
Route #5: 38 18 40 26 10 29 49 44 30 1
Route #6: 27 35 8 46 51
Route #7: 31 20 6 33
Cost 1010
Time 0.089654
